(set-info :smt-lib-version 2.6)
(set-logic QF_UFLRA)
(set-info :source |
MathSat group

|)
(set-info :category "random")
(set-info :status unsat)
(declare-fun x0 () Real)
(declare-fun x1 () Real)
(declare-fun x2 () Real)
(declare-fun x3 () Real)
(declare-fun x4 () Real)
(declare-fun x5 () Real)
(declare-fun x6 () Real)
(declare-fun x7 () Real)
(declare-fun x8 () Real)
(declare-fun x9 () Real)
(declare-fun x10 () Real)
(declare-fun x11 () Real)
(declare-fun x12 () Real)
(declare-fun x13 () Real)
(declare-fun x14 () Real)
(declare-fun x15 () Real)
(declare-fun x16 () Real)
(declare-fun x17 () Real)
(declare-fun x18 () Real)
(declare-fun x19 () Real)
(declare-fun x20 () Real)
(declare-fun x21 () Real)
(declare-fun x22 () Real)
(declare-fun x23 () Real)
(declare-fun x24 () Real)
(declare-fun x25 () Real)
(declare-fun x26 () Real)
(declare-fun x27 () Real)
(declare-fun x28 () Real)
(declare-fun x29 () Real)
(declare-fun f0_1 (Real) Real)
(declare-fun f0_2 (Real Real) Real)
(declare-fun f0_3 (Real Real Real) Real)
(declare-fun f0_4 (Real Real Real Real) Real)
(declare-fun P0 () Bool)
(declare-fun P1 () Bool)
(declare-fun P2 () Bool)
(declare-fun P3 () Bool)
(declare-fun P4 () Bool)
(declare-fun P5 () Bool)
(declare-fun P6 () Bool)
(declare-fun P7 () Bool)
(declare-fun P8 () Bool)
(declare-fun P9 () Bool)
(declare-fun P10 () Bool)
(declare-fun P11 () Bool)
(declare-fun P12 () Bool)
(declare-fun P13 () Bool)
(declare-fun P14 () Bool)
(declare-fun P15 () Bool)
(declare-fun P16 () Bool)
(declare-fun P17 () Bool)
(declare-fun P18 () Bool)
(declare-fun P19 () Bool)
(declare-fun P20 () Bool)
(declare-fun P21 () Bool)
(declare-fun P22 () Bool)
(declare-fun P23 () Bool)
(declare-fun P24 () Bool)
(declare-fun P25 () Bool)
(declare-fun P26 () Bool)
(declare-fun P27 () Bool)
(declare-fun P28 () Bool)
(declare-fun P29 () Bool)
(assert (let ((?v_50 (= (- (+ (* 30 x14) (* 7 x16)) (* 20 x6)) 38)) (?v_15 (< (- (+ (* 8 x26) (* 28 x4)) (* 36 x18)) 27)) (?v_59 (* 26 x3)) (?v_37 (<= (- (- (* 27 x13) (* 13 x18)) (* 9 x8)) 15)) (?v_19 (= (- (- (* 7 x24) (* 25 x1)) (* 4 x21)) 2)) (?v_26 (< (- (- (* 9 x15) (* 38 x11)) (* 21 x2)) 4)) (?v_4 (f0_1 x27)) (?v_113 (f0_1 x14))) (let ((?v_58 (distinct ?v_4 ?v_113)) (?v_115 (f0_1 x28))) (let ((?v_123 (= ?v_115 (f0_2 x26 x15))) (?v_44 (f0_1 x4))) (let ((?v_147 (distinct x26 ?v_44)) (?v_9 (f0_1 x10))) (let ((?v_23 (distinct ?v_9 (f0_2 x10 x6))) (?v_33 (distinct x6 (f0_2 x21 x12))) (?v_51 (= x28 x5)) (?v_99 (distinct (f0_1 x0) (f0_1 x20))) (?v_7 (= (f0_2 x11 x24) (f0_2 x8 x1))) (?v_68 (= x24 x6)) (?v_21 (= (f0_2 x7 x1) x13)) (?v_63 (= x27 x17)) (?v_105 (= x6 (f0_2 x11 x0))) (?v_138 (distinct ?v_115 ?v_44)) (?v_125 (= ?v_115 (f0_1 x29))) (?v_146 (distinct ?v_113 ?v_4)) (?v_5 (f0_1 x24))) (let ((?v_38 (distinct (f0_2 x9 x25) ?v_5)) (?v_35 (f0_1 x15))) (let ((?v_42 (= ?v_35 x20)) (?v_1 (distinct x21 (f0_1 x22))) (?v_8 (distinct (f0_2 x2 x5) (f0_2 x9 x28))) (?v_27 (distinct (f0_2 x9 x29) x13)) (?v_101 (distinct (f0_2 x13 x14) (f0_2 x23 x17))) (?v_0 (= ?v_5 ?v_9)) (?v_40 (= x4 (f0_2 x27 x29))) (?v_6 (f0_1 x18))) (let ((?v_47 (distinct ?v_6 (f0_2 x24 x10))) (?v_92 (distinct ?v_35 (f0_1 x5))) (?v_98 (= (f0_1 x26) ?v_44)) (?v_130 (= (f0_2 x18 x2) (f0_2 x1 x24))) (?v_46 (= ?v_6 ?v_4)) (?v_56 (= x23 ?v_4)) (?v_20 (= x16 (f0_1 x16))) (?v_75 (not P23)) (?v_81 (not ?v_99)) (?v_119 (not ?v_138)) (?v_52 (not P28))) (let ((?v_104 (not ?v_20)) (?v_129 (not P24)) (?v_87 (not ?v_33)) (?v_88 (not ?v_1)) (?v_3 (not ?v_21)) (?v_78 (not P22)) (?v_11 (not ?v_58)) (?v_70 (not P11)) (?v_120 (not ?v_51)) (?v_89 (not ?v_47)) (?v_131 (not ?v_15)) (?v_139 (not ?v_7)) (?v_71 (not ?v_8)) (?v_91 (not ?v_23)) (?v_45 (not P13)) (?v_64 (not P5)) (?v_32 (not P8)) (?v_82 (not P15)) (?v_86 (not P21)) (?v_128 (not P1)) (?v_18 (not P3)) (?v_140 (not P27)) (?v_16 (not P17)) (?v_80 (not P9)) (?v_67 (not ?v_63)) (?v_160 (or ?v_19 P14)) (?v_77 (not P25)) (?v_149 (not ?v_130)) (?v_116 (not P26)) (?v_132 (not P6)) (?v_49 (not ?v_26)) (?v_62 (not ?v_27)) (?v_114 (not P20)) (?v_122 (not ?v_0)) (?v_112 (not P19)) (?v_103 (not P4)) (?v_124 (not P14)) (?v_121 (not ?v_38)) (?v_79 (not ?v_147)) (?v_83 (not ?v_46)) (?v_157 (not P16)) (?v_106 (not ?v_68)) (?v_61 (not ?v_105)) (?v_94 (not ?v_50)) (?v_95 (not P18)) (?v_133 (not P7)) (?v_73 (not P29)) (?v_107 (not ?v_37)) (?v_109 (not ?v_56)) (?v_151 (not P10)) (?v_137 (not P0)) (?v_102 (not P2)) (?v_100 (not ?v_19)) (?v_154 (or P2 P23)) (?v_97 (not ?v_92)) (?v_126 (not P12)) (?v_118 (not ?v_146)) (?v_136 (not ?v_123)) (?v_145 (not ?v_125)) (?v_141 (not ?v_42)) (?v_144 (not ?v_101)) (?v_150 (not ?v_98)) (?v_155 (not ?v_40)) (?v_108 (distinct (- (* 31 x6) (* 22 x18)) 22))) (let ((?v_65 (not ?v_108)) (?v_76 (< (* 23 x28) 15))) (let ((?v_39 (not ?v_76)) (?v_13 (<= (- (* 11 x14) (* 13 x14)) 15)) (?v_25 (<= (+ (* 35 x1) (* 26 x24) (* 28 x21)) 41)) (?v_17 (<= (+ (* 18 x8) (* 4 x6) (* 19 x17)) 5))) (let ((?v_93 (not ?v_17)) (?v_85 (< (+ (* 39 x12) (* 26 x7) (* 5 x24)) 13)) (?v_31 (not ?v_25)) (?v_54 (not ?v_13)) (?v_135 (< (+ (* 4 x0) ?v_59 (* 8 x6)) 6))) (let ((?v_158 (not ?v_135)) (?v_10 (<= (+ (- (* (- 29) x20) (* 5 x8)) (* 3 x10)) 22)) (?v_53 (<= (+ (- (* 12 x28) (* 19 x24)) ?v_59) (- 32)))) (let ((?v_127 (not ?v_53)) (?v_2 (<= (+ (- (* (- 15) x15) (* 3 x5)) (* 7 x14)) (- 10))) (?v_48 (<= (+ (- (* (- 39) x28) (* 5 x11)) (* 42 x27)) 41)) (?v_156 (<= (+ (- (* (- 11) x1) (* 10 x15)) (* 32 x16)) (- 32)))) (let ((?v_22 (not ?v_156)) (?v_12 (not ?v_2)) (?v_57 (= (- (+ (* 21 x3) (* 27 x25)) (* 38 x28)) (- 30)))) (let ((?v_55 (not ?v_57)) (?v_110 (distinct (- (+ (* 41 x25) (* 15 x22)) (* 32 x8)) (- 29)))) (let ((?v_28 (not ?v_110)) (?v_14 (< (+ (* (- 37) x9) (* 10 x13) (* 13 x10)) (- 1)))) (let ((?v_24 (not ?v_14)) (?v_29 (< (+ (* (- 14) x7) (* 11 x25) (* 19 x12)) (- 2))) (?v_43 (<= (- (- (* (- 28) x11) (* 33 x15)) (* 27 x11)) (- 44))) (?v_36 (= (- (- (* (- 35) x17) (* 36 x16)) (* 25 x27)) 27)) (?v_30 (< (+ (* (- 31) x13) (* 4 x2) (* 27 x29)) 42)) (?v_34 (< (+ (- (* (- 39) x3) (* 24 x13)) (* 23 x18)) (- 1)))) (let ((?v_69 (not ?v_34)) (?v_74 (<= (- (+ (* (- 3) x1) (* 36 x20)) (* 29 x22)) (- 34))) (?v_142 (not ?v_30)) (?v_41 (<= (+ (* (- 26) x20) (* 28 x1) (* 21 x24)) 35)) (?v_111 (not ?v_36)) (?v_143 (not ?v_43)) (?v_60 (not ?v_48)) (?v_66 (distinct (+ (* (- 41) x17) (* 35 x2) (* 24 x19)) 31)) (?v_134 (not ?v_10)) (?v_72 (<= (- (- (* (- 5) x14) (* 3 x20)) (* 14 x29)) (- 11)))) (let ((?v_117 (not ?v_72)) (?v_96 (not ?v_74)) (?v_84 (<= (+ (* 2 x23) (* 22 x1) (* 26 x10)) (- 24)))) (let ((?v_90 (not ?v_84)) (?v_153 (not ?v_41)) (?v_148 (or ?v_8 ?v_43)) (?v_152 (not ?v_66)) (?v_159 (or ?v_53 ?v_15))) (and (and (and (and (and (and (and (and (and (and (and (and (and (and (and (and (and (and (and (and (and (and (and (and (and (and (and (and (and (and (and (and (and (and (and (and (and (and (and (and (and (and (and (and (and (and (and (and (and (and (and (and (and (and (and (and (and (and (and (and (and (and (and (and (and (and (and (and (and (and (and (and (and (and (and (and (and (and (and (and (and (and (and (and (and (and (and (and (and (and (and (and (and (and (and (and (and (and (and (and (and (and (and (and (and (and (and (and (and (and (and (and (and (and (and (and (and (and (and (and (and (and (and (and (and (and (and (and (and (and (and (and (and (and (and (and (and (and (and (and (and (and (and (and (and (and (and (and (and (and (and (and (and (and (and (and (and (and (and (and (and (and (and (and (and (and (and (and (and (and (and (and (and (and (and (and (and (and (and (and (and (and (and (and (and (and (and (and (and (and (and (and (and (and (and (and (and (and (and (and (and (and (and (and (and (and (and (and (and (and (and (and (and (and (and (and (and (and (and (and (and (and (and (and (and (and (and (and (and (and (and (and (and (and (and (and (and (and (and (and (and (and (and (and (and (and (and (and (and (and (and (and (and (and (and (and (and (and (and (and (and (and (and (and (and (and (and (and (and (and (and (and (and (and (and (and (and (and (and (and (and (and (and (and (and (and (and (and (and (and (and (and (and (and (and (and (and (and (and (and (and (and (and (and (and (and (and (and (and (and (and (and (and (and (and (and (and (and (and (and (and (and (and (and (and (and (and (and (and (and (and (and (and (and (and (and (and (and (and (and (and (and (and (and (and (and (and (and (and (and (and (and (and (and (and (and (and (and (and (and (and (and (and (and (and (and (and (and (and (and (and (and (and (and (and (and (and (and (and (and (and (and (and (and (and (and (and (and (and (and (and (and (and (and (and (and (and (and (and (and (and (and (and (and (and (and (and (and (and (and (and (and (and (and (and (and (and (and (and (and (and (and (and (and (and (and (and (and (and (and (and (and (and (and (and (and (and (and (and (and (and (and (and (and (and (and (and (and (and (or (or ?v_37 ?v_10) P21) (or (or ?v_75 ?v_81) ?v_0)) (or (or ?v_8 P23) ?v_119)) (or (or ?v_52 ?v_0) ?v_127)) (or (or P15 ?v_27) ?v_104)) (or (or ?v_2 ?v_129) ?v_87)) (or (or ?v_1 ?v_88) ?v_48)) (or (or ?v_22 ?v_3) ?v_7)) (or (or P5 ?v_78) ?v_12)) (or (or ?v_3 ?v_65) ?v_46)) (or (or ?v_11 ?v_70) ?v_120)) (or (or P0 ?v_55) ?v_28)) (or (or ?v_38 ?v_24) ?v_29)) (or (or ?v_89 ?v_39) P5)) (or (or P22 ?v_7) ?v_43)) (or (or ?v_131 P29) ?v_139)) (or (or ?v_71 ?v_91) ?v_45)) (or (or ?v_10 ?v_11) ?v_64)) (or (or P6 ?v_13) ?v_32)) (or (or ?v_82 ?v_2) ?v_40)) (or (or ?v_86 ?v_12) ?v_128)) (or (or P5 ?v_18) ?v_25)) (or (or ?v_13 ?v_14) P18)) (or (or ?v_93 ?v_140) ?v_16)) (or (or ?v_15 ?v_16) ?v_80)) (or (or ?v_26 ?v_17) ?v_19)) (or (or ?v_16 ?v_18) ?v_67)) (or ?v_160 P8)) (or (or P5 ?v_20) P13)) (or (or ?v_21 ?v_22) ?v_23)) (or (or ?v_11 P6) ?v_77)) (or (or ?v_149 ?v_36) ?v_24)) (or (or ?v_116 ?v_30) ?v_69)) (or (or ?v_132 ?v_85) ?v_74)) (or (or P12 ?v_31) P15)) (or (or ?v_50 ?v_49) ?v_14)) (or (or ?v_62 ?v_28) ?v_29)) (or (or ?v_114 ?v_21) ?v_142)) (or (or ?v_31 ?v_92) ?v_24)) (or (or P15 ?v_32) ?v_122)) (or (or ?v_33 ?v_41) ?v_112)) (or (or P17 P25) ?v_34)) (or (or ?v_54 P27) ?v_42)) (or (or ?v_111 ?v_103) ?v_124)) (or (or P5 ?v_37) ?v_121)) (or (or ?v_39 ?v_40) P17)) (or (or P14 ?v_41) ?v_39)) (or (or ?v_42 ?v_143) P21)) (or (or ?v_56 ?v_79) ?v_1)) (or (or ?v_45 ?v_83) ?v_157)) (or (or ?v_28 ?v_2) ?v_106)) (or (or ?v_40 ?v_47) P13)) (or (or ?v_46 ?v_60) ?v_66)) (or (or ?v_45 ?v_49) ?v_134)) (or (or ?v_47 P11) P10)) (or (or ?v_61 ?v_94) ?v_19)) (or (or P13 ?v_51) ?v_52)) (or (or ?v_53 ?v_54) ?v_24)) (or (or ?v_55 ?v_56) ?v_95)) (or (or ?v_57 ?v_41) ?v_72)) (or (or ?v_58 P9) ?v_133)) (or (or ?v_23 ?v_135) ?v_60)) (or (or ?v_73 ?v_61) ?v_62)) (or (or ?v_11 P1) ?v_40)) (or (or ?v_63 ?v_64) ?v_3)) (or (or ?v_65 ?v_66) ?v_107)) (or (or P9 ?v_67) P27)) (or (or P2 ?v_54) ?v_68)) (or (or ?v_66 ?v_69) ?v_70)) (or (or P28 ?v_71) ?v_18)) (or (or P20 P28) ?v_117)) (or (or P18 ?v_73) ?v_25)) (or (or ?v_74 ?v_14) ?v_98)) (or (or ?v_109 ?v_96) ?v_101)) (or (or ?v_53 ?v_75) ?v_76)) (or (or ?v_77 ?v_151) ?v_14)) (or (or ?v_84 ?v_78) ?v_33)) (or (or ?v_79 ?v_80) ?v_0)) (or (or ?v_72 ?v_81) ?v_13)) (or (or ?v_80 P1) ?v_24)) (or (or P19 ?v_69) ?v_82)) (or (or ?v_83 ?v_90) P28)) (or (or ?v_0 ?v_83) ?v_137)) (or (or ?v_58 ?v_16) ?v_85)) (or (or ?v_102 ?v_37) ?v_63)) (or (or P14 ?v_86) ?v_87)) (or (or ?v_100 ?v_88) ?v_63)) (or (or P11 ?v_89) ?v_90)) (or (or P26 ?v_91) ?v_36)) (or ?v_154 ?v_66)) (or (or P24 ?v_15) ?v_18)) (or (or ?v_72 ?v_15) ?v_27)) (or (or P15 ?v_97) ?v_93)) (or (or ?v_79 ?v_47) ?v_38)) (or (or P1 ?v_86) ?v_47)) (or (or ?v_70 P8) ?v_94)) (or (or ?v_3 ?v_95) P8)) (or (or ?v_96 ?v_97) ?v_81)) (or (or ?v_57 ?v_90) P23)) (or (or ?v_34 ?v_34) ?v_98)) (or (or ?v_28 ?v_84) ?v_99)) (or (or ?v_50 ?v_16) ?v_100)) (or (or ?v_10 ?v_0) ?v_20)) (or (or ?v_8 ?v_47) ?v_101)) (or (or ?v_20 ?v_3) P0)) (or (or ?v_126 ?v_97) P16)) (or (or ?v_30 ?v_102) ?v_82)) (or (or ?v_96 P28) ?v_41)) (or (or ?v_11 ?v_66) ?v_78)) (or (or ?v_12 P13) P2)) (or (or ?v_75 ?v_63) ?v_103)) (or (or ?v_43 ?v_41) ?v_33)) (or (or ?v_99 ?v_14) ?v_104)) (or (or ?v_90 ?v_105) P2)) (or (or P0 ?v_96) ?v_69)) (or (or ?v_106 ?v_107) ?v_86)) (or (or ?v_16 ?v_25) ?v_108)) (or (or ?v_10 ?v_16) ?v_109)) (or (or ?v_110 ?v_48) P5)) (or (or ?v_27 ?v_111) ?v_18)) (or (or ?v_69 ?v_112) ?v_7)) (or (or ?v_118 ?v_65) ?v_114)) (or (or ?v_125 ?v_32) ?v_116)) (or (or ?v_117 ?v_69) ?v_106)) (or (or ?v_74 ?v_99) ?v_104)) (or (or ?v_78 ?v_74) ?v_28)) (or (or ?v_2 ?v_47) ?v_84)) (or (or ?v_118 ?v_119) P12)) (or (or ?v_29 ?v_120) ?v_97)) (or (or P5 ?v_117) ?v_39)) (or (or ?v_121 ?v_10) ?v_123)) (or (or ?v_45 ?v_86) P14)) (or (or P3 ?v_48) ?v_117)) (or (or ?v_53 ?v_70) ?v_29)) (or (or ?v_122 ?v_13) ?v_136)) (or (or ?v_43 ?v_43) ?v_124)) (or (or ?v_125 ?v_109) ?v_82)) (or (or P7 ?v_101) ?v_27)) (or (or ?v_0 ?v_26) ?v_101)) (or (or ?v_126 ?v_40) ?v_66)) (or (or ?v_104 ?v_85) ?v_145)) (or (or ?v_36 ?v_120) ?v_100)) (or (or ?v_75 P24) ?v_127)) (or (or ?v_128 P21) ?v_65)) (or (or ?v_129 ?v_84) ?v_106)) (or (or ?v_58 P21) ?v_76)) (or (or ?v_77 ?v_2) ?v_30)) (or (or ?v_52 ?v_127) ?v_38)) (or (or ?v_11 ?v_13) ?v_28)) (or (or ?v_75 ?v_77) P7)) (or (or ?v_62 P23) ?v_120)) (or (or ?v_130 ?v_93) ?v_116)) (or (or ?v_46 ?v_131) P5)) (or (or ?v_131 ?v_132) ?v_117)) (or (or ?v_58 ?v_133) ?v_134)) (or (or P0 ?v_135) ?v_67)) (or (or ?v_77 ?v_136) ?v_46)) (or (or ?v_76 ?v_121) ?v_141)) (or (or ?v_118 ?v_21) ?v_43)) (or (or ?v_121 ?v_111) ?v_40)) (or (or P16 ?v_0) ?v_132)) (or (or P19 P18) ?v_131)) (or (or ?v_137 ?v_138) ?v_27)) (or (or ?v_109 ?v_8) ?v_70)) (or (or P22 ?v_88) ?v_107)) (or (or ?v_87 ?v_130) ?v_139)) (or (or ?v_13 ?v_135) ?v_140)) (or (or ?v_135 ?v_104) ?v_99)) (or (or ?v_135 ?v_126) ?v_88)) (or (or ?v_21 P22) ?v_141)) (or (or P8 ?v_142) ?v_103)) (or (or ?v_133 ?v_153) P4)) (or (or ?v_40 ?v_60) ?v_21)) (or (or ?v_133 ?v_127) ?v_18)) (or (or P9 P13) ?v_88)) (or (or ?v_143 ?v_31) ?v_87)) (or (or ?v_124 ?v_66) ?v_104)) (or (or ?v_7 ?v_102) ?v_20)) (or (or ?v_122 ?v_111) ?v_63)) (or (or ?v_65 ?v_90) ?v_85)) (or (or ?v_83 ?v_73) ?v_116)) (or (or ?v_46 ?v_144) ?v_128)) (or (or ?v_57 ?v_46) ?v_144)) (or (or P9 ?v_107) ?v_132)) (or (or ?v_70 ?v_119) P27)) (or (or P2 ?v_82) ?v_83)) (or (or ?v_150 P15) ?v_104)) (or (or ?v_85 ?v_143) ?v_78)) (or (or ?v_50 P15) ?v_23)) (or ?v_148 ?v_145)) (or (or ?v_120 ?v_29) ?v_41)) (or (or ?v_152 ?v_73) ?v_109)) (or (or ?v_158 P16) ?v_138)) (or (or ?v_146 ?v_13) P3)) (or (or ?v_100 P25) ?v_147)) (or (or ?v_2 ?v_80) ?v_24)) (or ?v_148 ?v_121)) (or (or ?v_149 ?v_93) ?v_41)) (or (or ?v_33 ?v_150) ?v_145)) (or (or P18 ?v_140) ?v_57)) (or (or ?v_54 ?v_99) P21)) (or (or ?v_46 ?v_51) ?v_14)) (or (or ?v_91 ?v_76) ?v_20)) (or (or ?v_93 ?v_56) ?v_64)) (or (or P22 ?v_125) P19)) (or (or ?v_83 ?v_21) ?v_33)) (or (or ?v_58 ?v_73) ?v_56)) (or (or ?v_24 ?v_48) ?v_1)) (or (or ?v_17 ?v_50) ?v_84)) (or (or ?v_136 ?v_79) ?v_53)) (or (or ?v_97 P24) ?v_79)) (or (or P6 ?v_106) ?v_43)) (or (or ?v_10 ?v_45) ?v_13)) (or (or ?v_118 ?v_146) ?v_63)) (or (or P26 ?v_149) ?v_0)) (or (or ?v_50 ?v_129) ?v_25)) (or (or ?v_123 ?v_62) ?v_140)) (or (or ?v_52 ?v_27) ?v_31)) (or (or ?v_27 ?v_45) P5)) (or (or ?v_52 P5) ?v_116)) (or (or ?v_151 ?v_29) ?v_88)) (or (or ?v_150 ?v_75) P0)) (or ?v_159 P8)) (or (or ?v_141 ?v_32) ?v_121)) (or (or P6 ?v_24) ?v_133)) (or (or ?v_19 P17) ?v_60)) (or (or ?v_84 ?v_94) ?v_56)) (or (or ?v_145 ?v_114) ?v_43)) (or (or ?v_61 ?v_123) ?v_60)) (or (or P25 ?v_75) ?v_114)) (or (or ?v_110 ?v_141) ?v_13)) (or (or ?v_12 ?v_131) ?v_97)) (or (or ?v_151 P23) ?v_53)) (or (or ?v_21 ?v_107) ?v_41)) (or (or ?v_92 ?v_88) ?v_54)) (or (or P18 ?v_30) ?v_111)) (or (or ?v_105 ?v_152) ?v_89)) (or (or ?v_54 ?v_1) P10)) (or (or ?v_68 P12) ?v_122)) (or (or ?v_114 ?v_45) ?v_30)) (or (or ?v_70 ?v_54) ?v_155)) (or (or ?v_46 ?v_71) ?v_121)) (or (or ?v_133 ?v_94) ?v_106)) (or (or P7 ?v_54) P0)) (or (or ?v_150 ?v_153) ?v_54)) (or (or P9 ?v_17) ?v_12)) (or (or ?v_146 ?v_0) P5)) (or (or ?v_123 ?v_28) ?v_96)) (or (or ?v_13 ?v_91) ?v_8)) (or (or P10 ?v_93) ?v_50)) (or (or ?v_65 ?v_136) P2)) (or (or ?v_144 ?v_88) ?v_93)) (or (or ?v_114 P18) ?v_100)) (or ?v_154 ?v_36)) (or (or P28 ?v_155) ?v_31)) (or (or ?v_149 ?v_109) P12)) (or (or ?v_128 ?v_62) ?v_127)) (or (or ?v_122 ?v_156) ?v_61)) (or (or ?v_55 ?v_153) ?v_100)) (or (or ?v_14 ?v_146) ?v_84)) (or (or ?v_51 ?v_85) ?v_128)) (or (or P9 ?v_8) ?v_98)) (or (or P15 ?v_149) ?v_75)) (or (or ?v_118 ?v_45) ?v_132)) (or (or ?v_130 ?v_108) ?v_122)) (or (or ?v_36 ?v_0) ?v_135)) (or (or ?v_77 P19) P2)) (or (or ?v_108 ?v_34) ?v_116)) (or (or ?v_48 ?v_111) P25)) (or (or ?v_104 ?v_27) ?v_3)) (or (or ?v_78 ?v_89) ?v_75)) (or (or ?v_91 P4) ?v_53)) (or (or ?v_152 P12) ?v_141)) (or (or P18 ?v_88) P9)) (or (or ?v_76 ?v_136) ?v_87)) (or (or ?v_135 ?v_96) ?v_157)) (or (or ?v_96 ?v_64) P29)) (or (or ?v_2 ?v_155) ?v_158)) (or (or ?v_91 ?v_143) P13)) (or (or ?v_55 P5) ?v_23)) (or (or P11 ?v_114) P7)) (or (or ?v_33 ?v_142) ?v_127)) (or (or P14 ?v_26) ?v_54)) (or (or ?v_95 P19) ?v_18)) (or (or ?v_129 ?v_91) P5)) (or (or ?v_114 ?v_94) ?v_108)) (or (or P13 P5) ?v_21)) (or (or ?v_55 ?v_54) ?v_122)) (or (or ?v_152 ?v_111) ?v_38)) (or (or ?v_74 ?v_119) ?v_25)) (or (or ?v_120 P28) ?v_84)) (or (or ?v_7 P24) ?v_91)) (or (or ?v_157 ?v_92) ?v_24)) (or (or ?v_31 ?v_143) ?v_82)) (or (or ?v_153 ?v_54) ?v_88)) (or (or ?v_75 ?v_155) ?v_108)) (or (or ?v_146 ?v_153) ?v_63)) (or (or ?v_10 ?v_157) ?v_23)) (or (or ?v_11 ?v_67) ?v_24)) (or (or P23 ?v_17) ?v_49)) (or (or ?v_108 P9) ?v_40)) (or (or ?v_93 P1) ?v_0)) (or (or ?v_77 ?v_64) ?v_23)) (or (or ?v_96 ?v_117) ?v_52)) (or (or ?v_93 ?v_12) ?v_8)) (or (or ?v_103 ?v_119) P16)) (or (or P5 ?v_61) ?v_107)) (or (or P13 ?v_108) ?v_133)) (or (or ?v_120 ?v_31) ?v_30)) (or (or ?v_157 ?v_145) ?v_89)) (or (or ?v_77 ?v_17) ?v_79)) (or (or ?v_58 ?v_103) ?v_97)) (or (or ?v_2 ?v_40) ?v_143)) (or (or ?v_108 ?v_28) P7)) (or (or ?v_139 ?v_140) ?v_100)) (or (or P8 ?v_36) P7)) (or (or ?v_74 ?v_155) P3)) (or (or ?v_93 ?v_144) ?v_32)) (or (or ?v_108 ?v_29) ?v_27)) (or (or ?v_156 ?v_42) ?v_155)) (or (or ?v_147 ?v_149) ?v_129)) (or (or ?v_63 ?v_65) ?v_77)) (or (or ?v_67 ?v_0) P24)) (or (or ?v_95 P12) ?v_91)) (or (or P24 P29) ?v_112)) (or (or ?v_58 ?v_144) ?v_124)) (or (or ?v_26 P24) ?v_105)) (or (or P29 ?v_126) P3)) (or (or ?v_101 ?v_85) ?v_92)) (or (or ?v_153 ?v_111) ?v_54)) (or (or P29 ?v_50) ?v_124)) (or (or ?v_124 ?v_116) ?v_105)) (or (or P24 ?v_155) ?v_10)) (or (or P27 ?v_90) ?v_132)) (or (or ?v_111 ?v_12) P2)) (or (or ?v_67 ?v_8) ?v_136)) (or (or ?v_145 ?v_48) ?v_33)) (or (or ?v_69 ?v_92) ?v_100)) (or (or P6 ?v_49) ?v_29)) (or (or ?v_57 ?v_97) ?v_49)) (or (or P20 ?v_108) ?v_57)) (or (or ?v_39 ?v_155) ?v_95)) (or (or ?v_90 ?v_142) ?v_150)) (or (or ?v_11 ?v_144) ?v_156)) (or (or ?v_133 (not ?v_29)) ?v_49)) (or (or ?v_98 ?v_18) ?v_128)) (or (or P17 ?v_90) ?v_72)) (or (or P12 ?v_108) ?v_110)) (or (or P26 P8) ?v_123)) (or (or P5 P22) ?v_70)) (or (or P5 P16) ?v_126)) (or (or ?v_129 ?v_70) ?v_146)) (or (or P7 ?v_80) P23)) (or (or ?v_109 ?v_27) ?v_52)) (or (or ?v_99 ?v_38) ?v_140)) (or (or P9 P10) ?v_65)) (or (or ?v_56 ?v_42) ?v_63)) (or (or ?v_40 ?v_30) P24)) (or (or ?v_144 ?v_42) P19)) (or (or P0 ?v_58) ?v_70)) (or (or ?v_139 ?v_80) ?v_54)) (or (or ?v_23 ?v_52) ?v_20)) (or (or ?v_150 ?v_124) ?v_141)) (or (or ?v_81 ?v_3) P8)) (or (or P9 ?v_26) ?v_2)) (or (or P24 P25) ?v_105)) (or (or ?v_68 P10) ?v_86)) (or (or ?v_140 ?v_12) ?v_93)) (or (or ?v_106 ?v_31) P12)) (or (or ?v_58 ?v_71) ?v_122)) (or (or ?v_19 ?v_14) ?v_32)) (or (or ?v_81 ?v_109) ?v_97)) (or (or ?v_105 ?v_101) ?v_76)) (or (or ?v_112 P26) ?v_93)) (or (or ?v_125 ?v_120) ?v_104)) (or (or ?v_110 ?v_24) ?v_107)) (or (or ?v_136 ?v_54) ?v_62)) (or (or ?v_15 P7) ?v_79)) (or (or ?v_101 ?v_100) P26)) (or (or ?v_2 P28) ?v_20)) (or (or ?v_116 P2) P16)) (or (or ?v_42 ?v_41) P2)) (or ?v_159 ?v_90)) (or (or P11 ?v_64) ?v_3)) (or (or ?v_108 ?v_43) P11)) (or (or ?v_95 ?v_28) P1)) (or (or ?v_136 ?v_42) ?v_60)) (or (or ?v_95 ?v_104) ?v_14)) (or (or ?v_97 ?v_46) ?v_45)) (or (or ?v_140 ?v_81) ?v_127)) (or (or ?v_149 ?v_75) ?v_157)) (or (or ?v_67 ?v_61) P17)) (or (or ?v_25 ?v_57) ?v_127)) (or (or ?v_85 ?v_13) ?v_65)) (or (or ?v_134 ?v_10) ?v_68)) (or (or ?v_68 P7) ?v_123)) (or (or ?v_124 ?v_3) ?v_125)) (or (or P9 ?v_10) ?v_22)) (or (or ?v_85 ?v_135) ?v_94)) (or (or ?v_122 ?v_141) ?v_71)) (or (or ?v_70 ?v_49) ?v_152)) (or (or ?v_8 ?v_34) ?v_135)) (or (or P6 ?v_23) ?v_143)) (or (or P25 ?v_58) ?v_60)) (or (or ?v_45 ?v_111) ?v_140)) (or (or ?v_19 ?v_68) ?v_122)) (or (or ?v_41 ?v_70) P7)) (or (or ?v_58 ?v_132) ?v_102)) (or (or ?v_101 ?v_145) ?v_10)) (or ?v_160 ?v_12)) (or (or P26 ?v_121) ?v_106)) (or (or P11 ?v_3) ?v_114)) (or (or ?v_136 ?v_147) ?v_95)) (or (or P5 ?v_64) ?v_126)) (or (or ?v_40 ?v_12) ?v_30)) (or (or ?v_112 ?v_28) ?v_23)) (or (or ?v_135 ?v_56) ?v_95)) (or (or ?v_23 ?v_99) ?v_136)) (or (or P25 ?v_84) ?v_101)) (or (or P19 ?v_85) ?v_80)) (or (or ?v_74 ?v_64) ?v_119)) (or (or ?v_118 P19) ?v_11)) (or (or ?v_99 ?v_58) ?v_146)) (or (or P13 ?v_144) ?v_155)) (or (or ?v_100 ?v_46) P5)) (or (or P11 ?v_53) ?v_130)) (or (or P21 ?v_118) ?v_158)) (or (or ?v_146 P29) ?v_8)) (or (or ?v_142 ?v_0) P3)) (or (or ?v_85 ?v_101) ?v_82)) (or (or ?v_60 ?v_33) P18)) (or (or ?v_49 ?v_133) ?v_40)) (or (or ?v_82 ?v_3) ?v_30)) (or (or P13 P26) ?v_22)) (or (or ?v_141 ?v_63) ?v_96)) (or (or ?v_131 ?v_140) ?v_123)) (or (or ?v_77 ?v_61) ?v_15)) (or (or P12 ?v_33) ?v_114)) (or (or ?v_142 ?v_97) ?v_3)) (or (or ?v_55 P25) P17)) (or (or ?v_123 ?v_98) ?v_63)) (or (or ?v_68 ?v_57) ?v_158)) (or (or ?v_156 ?v_135) ?v_11)) (or (or P24 P23) ?v_26)) (or (or P20 ?v_158) ?v_21)) (or (or ?v_49 P18) ?v_147)) (or (or ?v_105 ?v_140) ?v_36)) (or (or ?v_78 ?v_12) ?v_51)) (or (or P0 ?v_93) ?v_14)) (or (or ?v_146 ?v_156) ?v_82))))))))))))))))))))))))
(check-sat)
(exit)
